max: -4.0v1 + 5.0v2 + 3.0v4 + 2.0v5 + 3.0v6  - 1.0v7 + 2.0v8 + 1.0v9  - 3.0v10 + 4.0v12  - 5.0v13 + 6.0v14 + 1.0v15  - 7.0v16 + 1.0v17  - 4.0v18 + 3.0v19 + 5.0v20  - 9.0v21  - 4.0v22 + 3.0v23  - 4.0v24  - 2.0v25 + 6.0v27  - 2.0v28  - 5.0v29  - 1.0v30 + 1.0v31 + 1.0v32 + 8.0v33 + 7.0v34  - 2.0v35 + 5.0v36 + 3.0v38  - 2.0v39  - 3.0v40  - 1.0v41  - 4.0v42  - 8.0v43  - 3.0v44  - 2.0v45 + 5.0v46 + 3.0v47  - 2.0v48 + 8.0v49  - 2.0v50;

1 - v3 + v36 + v7 >= 0;
1 - v3 + 1 - v42 + 1 - v48 >= 0;
1 - v49 + 1 - v47 + 1 - v41 >= 0;
v8 + 1 - v40 + v17 >= 0;
1 - v21 + 1 - v31 + 1 - v39 >= 0;
v36 + 1 - v22 + v49 >= 0;
v27 + v38 + v14 >= 0;
v15 + 1 - v18 + v6 >= 0;
v6 + v7 + 1 - v43 >= 0;
v34 + 1 - v7 + v23 >= 0;
v2 + v14 + 1 - v13 >= 0;
v2 + v47 + 1 - v42 >= 0;
1 - v33 + 1 - v35 + v3 >= 0;
v44 + v40 + v49 >= 0;
v50 + v36 + v31 >= 0;
1 - v36 + 1 - v3 + 1 - v37 >= 0;
v26 + 1 - v29 + v43 >= 0;
v15 + v29 + 1 - v45 >= 0;
v24 + 1 - v11 + v18 >= 0;
1 - v47 + 1 - v26 + v6 >= 0;
1 - v50 + 1 - v33 + 1 - v10 >= 0;
v32 + v6 + v16 >= 0;
1 - v34 + v37 + v41 >= 0;
v7 + 1 - v28 + 1 - v17 >= 0;
1 - v44 + v46 + v19 >= 0;
v7 + v22 + 1 - v48 >= 0;
v3 + v39 + v34 >= 0;
v31 + v46 + 1 - v43 >= 0;
1 - v27 + v32 + v23 >= 0;
v37 + 1 - v50 + 1 - v18 >= 0;
v20 + v5 + v11 >= 0;
1 - v45 + 1 - v24 + v6 >= 0;
1 - v34 + 1 - v23 + 1 - v14 >= 0;
1 - v22 + v21 + v20 >= 0;
1 - v17 + v50 + v24 >= 0;
1 - v25 + 1 - v24 + 1 - v27 >= 0;
v3 + v35 + v21 >= 0;
1 - v26 + v47 + 1 - v36 >= 0;
1 - v28 + 1 - v45 + v49 >= 0;
1 - v21 + 1 - v6 + v12 >= 0;
1 - v17 + 1 - v15 + 1 - v39 >= 0;
v41 + v2 + 1 - v14 >= 0;
v25 + v36 + 1 - v23 >= 0;
1 - v39 + 1 - v3 + 1 - v40 >= 0;
v50 + v20 + v35 >= 0;
v27 + v31 + 1 - v39 >= 0;
v45 + 1 - v15 + 1 - v40 >= 0;
v34 + v50 + v35 >= 0;
1 - v1 + 1 - v48 + v12 >= 0;
v18 + 1 - v35 + 1 - v30 >= 0;
v27 + 1 - v24 + 1 - v25 >= 0;
1 - v4 + 1 - v33 + 1 - v12 >= 0;
1 - v43 + 1 - v24 + 1 - v37 >= 0;
1 - v37 + v31 + 1 - v44 >= 0;
1 - v9 + 1 - v38 + v14 >= 0;
v33 + 1 - v16 + v34 >= 0;
v4 + 1 - v35 + 1 - v5 >= 0;
1 - v3 + 1 - v21 + 1 - v19 >= 0;
1 - v35 + 1 - v36 + 1 - v29 >= 0;
v7 + 1 - v43 + v36 >= 0;
v30 + v14 + v41 >= 0;
1 - v35 + 1 - v24 + 1 - v7 >= 0;
v35 + 1 - v42 + v6 >= 0;
1 - v1 + 1 - v15 + v39 >= 0;
v27 + v49 + 1 - v16 >= 0;
1 - v37 + v49 + 1 - v10 >= 0;
v50 + 1 - v46 + 1 - v3 >= 0;
1 - v41 + v20 + v34 >= 0;
1 - v1 + v23 + v28 >= 0;
1 - v12 + 1 - v30 + 1 - v20 >= 0;
1 - v24 + v29 + 1 - v37 >= 0;
v12 + v5 + 1 - v44 >= 0;
1 - v6 + 1 - v2 + v48 >= 0;
1 - v2 + 1 - v49 + 1 - v43 >= 0;
v1 + 1 - v50 + v24 >= 0;
1 - v7 + 1 - v50 + 1 - v44 >= 0;
1 - v41 + v43 + v4 >= 0;
v13 + v15 + 1 - v11 >= 0;
1 - v3 + 1 - v11 + v23 >= 0;
v33 + v48 + v41 >= 0;
v9 + v23 + 1 - v49 >= 0;
1 - v43 + v47 + v1 >= 0;
1 - v40 + v16 + 1 - v29 >= 0;
v30 + v19 + v3 >= 0;
v19 + 1 - v34 + v48 >= 0;
1 - v16 + 1 - v44 + v14 >= 0;
v38 + 1 - v45 + 1 - v12 >= 0;
1 - v4 + 1 - v14 + 1 - v31 >= 0;
1 - v48 + v35 + 1 - v1 >= 0;
v45 + 1 - v13 + v19 >= 0;
v9 + v42 + 1 - v7 >= 0;
1 - v1 + 1 - v15 + v8 >= 0;
1 - v13 + 1 - v44 + 1 - v14 >= 0;
1 - v43 + 1 - v37 + 1 - v31 >= 0;
1 - v27 + 1 - v29 + v47 >= 0;
v7 + v4 + v17 >= 0;
v7 + v10 + v35 >= 0;
1 - v25 + v20 + v17 >= 0;
v35 + 1 - v5 + 1 - v42 >= 0;
1 - v50 + v24 + 1 - v5 >= 0;
1 - v21 + 1 - v26 + v2 >= 0;
1 - v8 + v45 + 1 - v21 >= 0;
1 - v16 + v33 + v49 >= 0;
1 - v38 + v6 + v16 >= 0;
v5 + v21 + v37 >= 0;
v8 + v38 + v31 >= 0;
1 - v21 + v33 + v14 >= 0;
v20 + v40 + 1 - v5 >= 0;
1 - v29 + 1 - v9 + v31 >= 0;
1 - v7 + v42 + 1 - v22 >= 0;
1 - v48 + v8 + v26 >= 0;
v48 + 1 - v38 + v33 >= 0;
1 - v34 + v49 + v46 >= 0;
1 - v14 + 1 - v46 + v25 >= 0;
1 - v46 + v4 + v18 >= 0;
v36 + 1 - v12 + 1 - v31 >= 0;
v12 + 1 - v18 + v14 >= 0;
1 - v7 + v46 + 1 - v16 >= 0;
v9 + 1 - v8 + v7 >= 0;
v49 + 1 - v42 + 1 - v22 >= 0;
v22 + 1 - v15 + v38 >= 0;
v34 + 1 - v41 + v47 >= 0;
v22 + 1 - v26 + v32 >= 0;
1 - v25 + 1 - v45 + 1 - v21 >= 0;
1 - v26 + v32 + 1 - v11 >= 0;
v15 + v26 + 1 - v25 >= 0;
1 - v1 + v46 + v25 >= 0;
1 - v14 + 1 - v31 + v30 >= 0;
1 - v9 + 1 - v22 + v12 >= 0;
1 - v18 + v26 + 1 - v35 >= 0;
1 - v16 + 1 - v32 + 1 - v21 >= 0;
v31 + 1 - v49 + 1 - v21 >= 0;
v11 + v9 + v41 >= 0;
1 - v13 + 1 - v30 + v19 >= 0;
1 - v10 + v4 + v6 >= 0;
1 - v4 + v3 + 1 - v22 >= 0;
1 - v25 + 1 - v50 + 1 - v18 >= 0;
1 - v40 + v4 + v9 >= 0;
v37 + v20 + v46 >= 0;
1 - v27 + v22 + 1 - v29 >= 0;
v34 + v14 + v3 >= 0;
v3 + 1 - v31 + v20 >= 0;
1 - v50 + v2 + 1 - v26 >= 0;
v17 + 1 - v29 + v38 >= 0;
1 - v49 + v12 + 1 - v41 >= 0;
v15 + 1 - v35 + 1 - v43 >= 0;
1 - v22 + 1 - v23 + 1 - v49 >= 0;
1 - v9 + v33 + v48 >= 0;
v26 + v29 + v35 >= 0;
v27 + 1 - v50 + v37 >= 0;
1 - v7 + v46 + 1 - v43 >= 0;
1 - v46 + 1 - v37 + 1 - v8 >= 0;
1 - v40 + v36 + 1 - v24 >= 0;
1 - v44 + v46 + v15 >= 0;
1 - v3 + v36 + 1 - v16 >= 0;
1 - v48 + v9 + v43 >= 0;
1 - v25 + 1 - v4 + v44 >= 0;
1 - v22 + v37 + 1 - v7 >= 0;
1 - v31 + 1 - v17 + 1 - v22 >= 0;
1 - v11 + 1 - v48 + v17 >= 0;
v23 + v34 + 1 - v28 >= 0;
v23 + 1 - v48 + 1 - v39 >= 0;
1 - v37 + 1 - v1 + 1 - v23 >= 0;
1 - v19 + v27 + v14 >= 0;
1 - v22 + v33 + 1 - v6 >= 0;
1 - v6 + 1 - v32 + 1 - v26 >= 0;
v18 + 1 - v20 + 1 - v46 >= 0;
v43 + v22 + v27 >= 0;
1 - v13 + v34 + v49 >= 0;
1 - v35 + 1 - v46 + v3 >= 0;
v32 + v39 + 1 - v43 >= 0;
v6 + 1 - v39 + 1 - v9 >= 0;
v27 + v39 + 1 - v16 >= 0;
v25 + 1 - v17 + 1 - v15 >= 0;
1 - v43 + v27 + v34 >= 0;
1 - v6 + v49 + v5 >= 0;
1 - v38 + v11 + v14 >= 0;
v40 + 1 - v38 + v47 >= 0;
v37 + 1 - v14 + v17 >= 0;
v39 + v29 + v36 >= 0;
1 - v39 + 1 - v28 + v1 >= 0;
1 - v18 + v14 + 1 - v16 >= 0;
1 - v40 + v50 + v15 >= 0;
v37 + 1 - v42 + v18 >= 0;
1 - v13 + v31 + v33 >= 0;
v2 + 1 - v42 + v33 >= 0;
v8 + 1 - v3 + 1 - v22 >= 0;
v1 + v23 + 1 - v31 >= 0;
1 - v20 + 1 - v45 + v26 >= 0;
v42 + v11 + v49 >= 0;
v29 + v11 + 1 - v43 >= 0;
1 - v20 + 1 - v21 + v30 >= 0;
v23 + v45 + 1 - v35 >= 0;
v38 + 1 - v30 + 1 - v14 >= 0;
1 - v9 + v48 + 1 - v29 >= 0;
v11 + 1 - v18 + 1 - v23 >= 0;
1 - v41 + 1 - v1 + 1 - v29 >= 0;
v5 + v41 + v26 >= 0;
v44 + 1 - v30 + 1 - v7 >= 0;
v38 + 1 - v6 + 1 - v41 >= 0;
v46 + v48 + 1 - v15 >= 0;
1 - v18 + 1 - v10 + 1 - v47 >= 0;
v38 + v46 + 1 - v32 >= 0;
1 - v32 + v46 + v12 >= 0;
v31 + v40 + v14 >= 0;
1 - v18 + v2 + v49 >= 0;
v28 + 1 - v38 + v27 >= 0;
1 - v16 + 1 - v21 + v14 >= 0;
1 - v29 + v15 + v12 >= 0;
v49 + v34 + v5 >= 0;
v14 + v22 + 1 - v12 >= 0;
v30 + v33 + v20 >= 0;
1 - v24 + v22 + v25 >= 0;
v4 + 1 - v48 + 1 - v23 >= 0;
1 - v30 + 1 - v36 + v9 >= 0;
v44 + v12 + 1 - v35 >= 0;
v38 + v3 + 1 - v21 >= 0;
1 - v11 + v33 + v49 >= 0;
0 <= v1 <= 1;
0 <= v2 <= 1;
0 <= v3 <= 1;
0 <= v4 <= 1;
0 <= v5 <= 1;
0 <= v6 <= 1;
0 <= v7 <= 1;
0 <= v8 <= 1;
0 <= v9 <= 1;
0 <= v10 <= 1;
0 <= v11 <= 1;
0 <= v12 <= 1;
0 <= v13 <= 1;
0 <= v14 <= 1;
0 <= v15 <= 1;
0 <= v16 <= 1;
0 <= v17 <= 1;
0 <= v18 <= 1;
0 <= v19 <= 1;
0 <= v20 <= 1;
0 <= v21 <= 1;
0 <= v22 <= 1;
0 <= v23 <= 1;
0 <= v24 <= 1;
0 <= v25 <= 1;
0 <= v26 <= 1;
0 <= v27 <= 1;
0 <= v28 <= 1;
0 <= v29 <= 1;
0 <= v30 <= 1;
0 <= v31 <= 1;
0 <= v32 <= 1;
0 <= v33 <= 1;
0 <= v34 <= 1;
0 <= v35 <= 1;
0 <= v36 <= 1;
0 <= v37 <= 1;
0 <= v38 <= 1;
0 <= v39 <= 1;
0 <= v40 <= 1;
0 <= v41 <= 1;
0 <= v42 <= 1;
0 <= v43 <= 1;
0 <= v44 <= 1;
0 <= v45 <= 1;
0 <= v46 <= 1;
0 <= v47 <= 1;
0 <= v48 <= 1;
0 <= v49 <= 1;
0 <= v50 <= 1;
